(declare-fun NM () Int)
(declare-fun NR () Int)
(declare-fun idx () Int)
(declare-fun slab_per_bc () Int)

(assert (and
  (and
    (<= 1 (- NR 1))
    (<= (+ idx 1) 31)
    (<= 1 slab_per_bc)
    (<= 0 idx)
    (<= 1 (- NM 1))
  )
  (not (<= 1 NR))
  (forall ((c_0 Int) (c_1 Int) (r_0 Int) (r_1 Int))
    (or
      (not (<= 0 r_0))
      (not (<= r_0 (- NR 1)))
      (not (<= 0 c_0))
      (not (= r_0 r_1))
      (not (= c_0 c_1))
      (not (<= 0 r_1))
      (not (<= r_1 (- NR 1)))
      (not (<= 0 c_1))
      (not (<= c_0 (- NM 1)))
      (not (<= c_1 (- NM 1)))
    )
  )
  (forall ((c_0 Int) (r_0 Int))
    (or
      (not (<= 0 r_0))
      (not (<= r_0 (- NR 1)))
      (not (<= c_0 (- NM 1)))
      (not (<= 0 c_0))
    )
  )
  (forall ((c_0 Int) (n_0 Int) (r_0 Int))
    (or
      (not (<= 0 r_0))
      (not (<= r_0 (- NR 1)))
      (not (<= 0 c_0))
      (not (<= c_0 (- NR 1)))
      (not (<= 0 n_0))
      (not (<= n_0 slab_per_bc))
    )
  )
  (forall ((c_0 Int) (c_1 Int) (n_0 Int) (n_1 Int) (r_0 Int) (r_1 Int))
    (or
      (not (<= 0 r_0))
      (not (<= r_0 (- NR 1)))
      (not (<= 0 c_0))
      (not (<= c_0 (- NR 1)))
      (not (= r_0 r_1))
      (not (= c_0 c_1))
      (not (<= 0 n_1))
      (not (<= n_1 slab_per_bc))
      (not (<= 0 r_1))
      (not (<= r_1 (- NR 1)))
      (not (<= 0 c_1))
      (not (<= c_1 (- NR 1)))
      (not (<= 0 n_0))
      (not (<= n_0 slab_per_bc))
    )
  )
  (forall ((c_1 Int) (n_1 Int) (r_1 Int))
    (or
      (not (<= 0 n_1))
      (not (<= n_1 slab_per_bc))
      (not (<= 0 r_1))
      (not (<= r_1 (- NR 1)))
      (not (<= 0 c_1))
      (not (<= c_1 (- NR 1)))
    )
  )
  (or
    (not (<= 1 NR))
    (not (<= 1 NM))
  )
  (forall ((c_1 Int) (r_1 Int))
    (or
      (not (<= 0 r_1))
      (not (<= r_1 (- NR 1)))
      (not (<= 0 c_1))
      (not (<= c_1 (- NM 1)))
    )
  )
))

(check-sat)